
%nprocshared=16
%mem=18GB
%chk=Molecule_ANTCEN.chk
#p opt  B3LYP/3-21g*

Molecule_ANTCEN_16c

0 1
C -1.5805 0.1638 3.3618 
C -0.7706 0.9525 2.5812 
C -0.3776 0.4849 1.2704 
C 0.4506 1.2641 0.4357 
C -0.8325 -0.789 0.8266 
C -1.6865 -1.5664 1.6869 
C -2.0444 -1.0905 2.911 
H -1.8844 0.6542 4.3386 
H -0.3387 1.9601 2.9116 
H 0.7812 2.2725 0.7833 
H -1.9451 -2.599 1.3163 
H -2.6187 -1.9558 3.486 
C 0.8325 0.789 -0.8266 
C -0.4506 -1.2641 -0.4357 
C 0.3776 -0.4849 -1.2704 
C 1.6865 1.5664 -1.6869 
H -0.7812 -2.2725 -0.7833 
C 0.7706 -0.9525 -2.5812 
C 2.0444 1.0905 -2.911 
H 1.9451 2.599 -1.3163 
C 1.5805 -0.1638 -3.3618 
H 0.3387 -1.9601 -2.9116 
H 2.6187 1.9558 -3.486 
H 1.8844 -0.6542 -4.3386 


